Version identifier: 22.1.0.0 | 2022-03-09 | 1a383f8ce
CPXPARAM_Threads                                 1
CPXPARAM_MIP_Strategy_VariableSelect             3
CPXPARAM_TimeLimit                               599.99997199100005
1 of 1 MIP starts provided solutions.
MIP start 'm1' defined initial solution with objective 1.0000.
Tried aggregator 1 time.
MIP Presolve eliminated 13 rows and 0 columns.
MIP Presolve modified 139 coefficients.
Reduced MIP has 2413 rows, 10400 columns, and 189090 nonzeros.
Reduced MIP has 10400 binaries, 0 generals, 0 SOSs, and 0 indicators.
Presolve time = 0.27 sec. (359.32 ticks)
Probing time = 0.03 sec. (26.35 ticks)
Tried aggregator 1 time.
Detecting symmetries...
MIP Presolve modified 13 coefficients.
Reduced MIP has 2413 rows, 10400 columns, and 189320 nonzeros.
Reduced MIP has 10400 binaries, 0 generals, 0 SOSs, and 0 indicators.
Presolve time = 0.22 sec. (295.72 ticks)
Probing time = 0.03 sec. (26.37 ticks)
Clique table members: 1750.
MIP emphasis: balance optimality and feasibility.
MIP search method: dynamic search.
Parallel mode: none, using 1 thread.
Root relaxation solution time = 9.86 sec. (14211.72 ticks)

        Nodes                                         Cuts/
   Node  Left     Objective  IInf  Best Integer    Best Bound    ItCnt     Gap

*     0+    0                            1.0000    80200.0000              --- 
      0     0      400.0000  1557        1.0000      400.0000    23637     --- 
*     0+    0                           35.0000      400.0000              --- 
*     0+    0                           59.0000      400.0000           577.97%
*     0+    0                          385.0000      400.0000             3.90%
      0     0        cutoff            385.0000      400.0000    23637    3.90%
Detecting symmetries...
      0     2      400.0000   136      385.0000      400.0000    23637    3.90%
Elapsed time = 29.25 sec. (37857.71 ticks, tree = 0.01 MB, solutions = 4)
      1     3      400.0000   286      385.0000      400.0000    34163    3.90%
      2     4      400.0000   371      385.0000      400.0000    37365    3.90%
      3     5      400.0000   305      385.0000      400.0000    42382    3.90%
      4     6      400.0000   266      385.0000      400.0000    42497    3.90%
      5     7      400.0000   263      385.0000      400.0000    45477    3.90%
      6     8      400.0000   299      385.0000      400.0000    48224    3.90%
      7     9      400.0000   538      385.0000      400.0000    50713    3.90%
      8     9      400.0000   315      385.0000      400.0000    56903    3.90%
      9    10      400.0000   401      385.0000      400.0000    57189    3.90%
     11    12      400.0000   533      385.0000      400.0000    58112    3.90%
Elapsed time = 43.80 sec. (55011.33 ticks, tree = 0.14 MB, solutions = 4)
     12    13      400.0000   460      385.0000      400.0000    66815    3.90%
     14    15      400.0000   440      385.0000      400.0000    68466    3.90%
     15    16      400.0000  1300      385.0000      400.0000    70643    3.90%
     17    18      400.0000   404      385.0000      400.0000    72754    3.90%
     19    20      400.0000   409      385.0000      400.0000    73423    3.90%
     22    23      400.0000   491      385.0000      400.0000    75212    3.90%
     24    25      400.0000   503      385.0000      400.0000    78363    3.90%
     26    27      400.0000   531      385.0000      400.0000    80896    3.90%
     29    30      400.0000   457      385.0000      400.0000    81007    3.90%
     31    32      400.0000   389      385.0000      400.0000    81924    3.90%
Elapsed time = 55.95 sec. (69107.74 ticks, tree = 0.58 MB, solutions = 4)
     32    33      400.0000   408      385.0000      400.0000    83314    3.90%
     35    36      400.0000   456      385.0000      400.0000    85964    3.90%
     37    38      400.0000   426      385.0000      400.0000    91821    3.90%
     39    40      400.0000   558      385.0000      400.0000    95282    3.90%
     40    41      400.0000   396      385.0000      400.0000    95308    3.90%
     42    43      400.0000   404      385.0000      400.0000   100058    3.90%
     44    45      400.0000   625      385.0000      400.0000   104157    3.90%
     45    46      400.0000   378      385.0000      400.0000   104769    3.90%
     46    47      400.0000   537      385.0000      400.0000   107535    3.90%
     48    49      400.0000   368      385.0000      400.0000   110808    3.90%
Elapsed time = 71.79 sec. (86899.06 ticks, tree = 0.91 MB, solutions = 4)
     49    50      400.0000   477      385.0000      400.0000   112866    3.90%
     50    51      400.0000   358      385.0000      400.0000   115263    3.90%
     52    53      400.0000   375      385.0000      400.0000   116794    3.90%
     54    55      400.0000   324      385.0000      400.0000   120054    3.90%
     57    58      400.0000   280      385.0000      400.0000   122444    3.90%
     59    60      400.0000   278      385.0000      400.0000   125995    3.90%
     62    63      400.0000   273      385.0000      400.0000   128947    3.90%
     64    65      400.0000   291      385.0000      400.0000   132412    3.90%
     67    68      400.0000   276      385.0000      400.0000   134759    3.90%
     70    71      400.0000   325      385.0000      400.0000   139918    3.90%
Elapsed time = 94.34 sec. (111079.65 ticks, tree = 1.38 MB, solutions = 4)
     72    73      400.0000   227      385.0000      400.0000   142972    3.90%
     74    75      400.0000   244      385.0000      400.0000   145436    3.90%
     76    77      400.0000   315      385.0000      400.0000   147672    3.90%
     78    79      400.0000   257      385.0000      400.0000   150074    3.90%
     80    81      400.0000   630      385.0000      400.0000   157320    3.90%
     82    83      400.0000   448      385.0000      400.0000   163106    3.90%
     83    84      400.0000   364      385.0000      400.0000   165555    3.90%
     85    86      400.0000   252      385.0000      400.0000   173940    3.90%
     87    88      400.0000   234      385.0000      400.0000   175233    3.90%
     89    90      400.0000   429      385.0000      400.0000   180914    3.90%
Elapsed time = 112.03 sec. (131072.00 ticks, tree = 1.76 MB, solutions = 4)
     91    92      400.0000   399      385.0000      400.0000   185614    3.90%
     92    93      400.0000   363      385.0000      400.0000   189047    3.90%
     94    95      400.0000   359      385.0000      400.0000   190687    3.90%
     96    97      400.0000   416      385.0000      400.0000   193053    3.90%
     98    99      400.0000   399      385.0000      400.0000   198545    3.90%
    100   101      400.0000   338      385.0000      400.0000   202511    3.90%
    102   103      400.0000   443      385.0000      400.0000   207323    3.90%
    105   106      400.0000   332      385.0000      400.0000   209502    3.90%
    108   109      400.0000   303      385.0000      400.0000   215355    3.90%
    110   111      400.0000   289      385.0000      400.0000   219515    3.90%
Elapsed time = 124.86 sec. (145367.80 ticks, tree = 2.26 MB, solutions = 4)
    112   113      400.0000   263      385.0000      400.0000   222367    3.90%
    115   116      400.0000   363      385.0000      400.0000   229011    3.90%
    118   119      400.0000   261      385.0000      400.0000   231242    3.90%
    120   121      400.0000   231      385.0000      400.0000   237299    3.90%
    123   124      400.0000   225      385.0000      400.0000   240177    3.90%
    126   127      400.0000   301      385.0000      400.0000   248133    3.90%
    128   129      400.0000   438      385.0000      400.0000   251069    3.90%
    129   130      400.0000   298      385.0000      400.0000   253314    3.90%
    131   132      400.0000   369      385.0000      400.0000   258189    3.90%
    133   134      400.0000   365      385.0000      400.0000   259829    3.90%
Elapsed time = 139.07 sec. (160966.35 ticks, tree = 2.78 MB, solutions = 4)
    135   136      400.0000   319      385.0000      400.0000   261740    3.90%
    136   137      400.0000   357      385.0000      400.0000   263945    3.90%
    138   139      400.0000   382      385.0000      400.0000   268749    3.90%
    140   141      400.0000   403      385.0000      400.0000   271829    3.90%
    143   144      400.0000   346      385.0000      400.0000   272475    3.90%
    145   146      400.0000   338      385.0000      400.0000   278215    3.90%
    147   148      400.0000   374      385.0000      400.0000   281797    3.90%
    149   150      400.0000   401      385.0000      400.0000   285740    3.90%
    151   152      400.0000   413      385.0000      400.0000   291491    3.90%
    153   154      400.0000   463      385.0000      400.0000   296349    3.90%
Elapsed time = 152.94 sec. (175567.53 ticks, tree = 3.14 MB, solutions = 4)
    155   156      400.0000   410      385.0000      400.0000   301517    3.90%
    157   158      400.0000   368      385.0000      400.0000   305412    3.90%
    160   161      400.0000   334      385.0000      400.0000   311432    3.90%
    162   163      400.0000   462      385.0000      400.0000   317084    3.90%
    164   165      400.0000   402      385.0000      400.0000   327313    3.90%
    166   167      400.0000   370      385.0000      400.0000   330627    3.90%
    168   169      400.0000   258      385.0000      400.0000   332943    3.90%
    169   170      400.0000   248      385.0000      400.0000   336751    3.90%
    170   171      400.0000   309      385.0000      400.0000   340043    3.90%
    172   173      400.0000   372      385.0000      400.0000   346072    3.90%
Elapsed time = 167.68 sec. (190701.57 ticks, tree = 3.54 MB, solutions = 4)
    174   175      400.0000   336      385.0000      400.0000   349776    3.90%
    176   177      400.0000   306      385.0000      400.0000   354750    3.90%
    180   180      400.0000   259      385.0000      400.0000   358665    3.90%
    184   182      400.0000   269      385.0000      400.0000   364337    3.90%
    187   183      398.9091   395      385.0000      400.0000   372924    3.90%
    191   185      398.9091   320      385.0000      400.0000   379998    3.90%
    194   188      400.0000   214      385.0000      400.0000   382877    3.90%
    198   191      400.0000   219      385.0000      400.0000   387195    3.90%
    201   194      400.0000   203      385.0000      400.0000   390129    3.90%
    212   201      399.0000   268      385.0000      400.0000   406995    3.90%
Elapsed time = 182.01 sec. (205307.42 ticks, tree = 4.16 MB, solutions = 4)
    221   207      399.0000   332      385.0000      400.0000   427259    3.90%
    233   214      399.0455   283      385.0000      400.0000   450488    3.90%
    243   221      400.0000   131      385.0000      400.0000   466565    3.90%
    248   224      400.0000   120      385.0000      400.0000   485601    3.90%
    254   228      400.0000   112      385.0000      400.0000   500138    3.90%
    259   231      398.9552   328      385.0000      400.0000   512447    3.90%
    265   235      399.1364   281      385.0000      400.0000   527403    3.90%
    270   239      399.0000   172      385.0000      400.0000   538282    3.90%
    276   244      400.0000   265      385.0000      400.0000   552961    3.90%
    282   250      400.0000   194      385.0000      400.0000   562931    3.90%
Elapsed time = 221.78 sec. (246427.41 ticks, tree = 5.13 MB, solutions = 4)
    290   254      398.9271   279      385.0000      400.0000   577192    3.90%
    297   259      399.0833   334      385.0000      400.0000   588243    3.90%
    304   262      399.0000   330      385.0000      400.0000   601119    3.90%
    314   269      400.0000   218      385.0000      400.0000   611015    3.90%
    323   275      399.0000   302      385.0000      400.0000   621053    3.90%
    333   283      400.0000   176      385.0000      400.0000   630050    3.90%
    341   287      399.0000   213      385.0000      400.0000   643132    3.90%
    355   298      397.0000   103      385.0000      400.0000   651615    3.90%
    367   305      397.0000    92      385.0000      400.0000   662015    3.90%
    379   312      397.0000   148      385.0000      400.0000   671748    3.90%
Elapsed time = 261.91 sec. (287148.66 ticks, tree = 6.56 MB, solutions = 4)
    392   321      397.0000   120      385.0000      400.0000   680705    3.90%
    402   327      397.0000   179      385.0000      400.0000   688189    3.90%
    414   332      396.7500   239      385.0000      400.0000   702429    3.90%
    427   340      397.0000   112      385.0000      400.0000   713391    3.90%
    440   347      396.0000   176      385.0000      400.0000   728513    3.90%
    455   350      400.0000   258      385.0000      400.0000   748447    3.90%
    463   357      399.0833   304      385.0000      400.0000   758815    3.90%
    471   364      400.0000   164      385.0000      400.0000   769038    3.90%
    481   369      400.0000   126      385.0000      400.0000   780058    3.90%
    492   376      400.0000   134      385.0000      400.0000   790900    3.90%
Elapsed time = 304.50 sec. (329015.74 ticks, tree = 8.02 MB, solutions = 4)
    503   383      400.0000   135      385.0000      400.0000   801807    3.90%
    514   390      400.0000   101      385.0000      400.0000   813070    3.90%
    528   397      399.0000   177      385.0000      400.0000   824078    3.90%
    544   408      399.0000   148      385.0000      400.0000   832651    3.90%
    557   413      399.0000   161      385.0000      400.0000   845960    3.90%
    569   419      398.0000   279      385.0000      400.0000   859312    3.90%
    581   430      398.0000   141      385.0000      400.0000   868542    3.90%
    597   440      398.0000   138      385.0000      400.0000   881138    3.90%
    613   453      398.0000    96      385.0000      400.0000   889263    3.90%
    629   465      397.0000   143      385.0000      400.0000   901016    3.90%
Elapsed time = 344.89 sec. (368688.32 ticks, tree = 10.06 MB, solutions = 4)
    648   479      397.2500   182      385.0000      400.0000   911719    3.90%
    668   493      397.0000   147      385.0000      400.0000   922487    3.90%
    689   506      397.0000    88      385.0000      400.0000   934748    3.90%
    729   526      392.0000    38      385.0000      400.0000   945606    3.90%
*   738   521      integral     0      392.0000      400.0000   947113    2.04%
    742   523      400.0000   197      392.0000      400.0000   955081    2.04%
    748   527      398.8333   248      392.0000      400.0000   967774    2.04%
    756   534      397.0000   209      392.0000      400.0000   979365    2.04%
    767   542      394.0000   171      392.0000      400.0000   988971    2.04%
    781   554      394.0000    77      392.0000      400.0000   997691    2.04%
    802   565      400.0000   127      392.0000      400.0000  1007689    2.04%
Elapsed time = 385.63 sec. (408285.34 ticks, tree = 12.38 MB, solutions = 5)
    815   571      398.5833   190      392.0000      400.0000  1018569    2.04%
    829   580      399.0000   155      392.0000      400.0000  1029896    2.04%
    844   582    infeasible            392.0000      400.0000  1042057    2.04%
    857   590      397.0000   169      392.0000      400.0000  1052470    2.04%
*   874   563      integral     0      394.0000      400.0000  1057536    1.52%
    877   563      398.0000   230      394.0000      400.0000  1061690    1.52%
    886   570      396.0000   142      394.0000      400.0000  1071003    1.52%
*   891   511      integral     0      396.0000      400.0000  1074556    1.01%
    901   517      398.0000   182      396.0000      400.0000  1081055    1.01%
    913   523    infeasible            396.0000      400.0000  1094379    1.01%
    934   542      398.0000   115      396.0000      400.0000  1099101    1.01%
    954   556    infeasible            396.0000      400.0000  1108252    1.01%
Elapsed time = 427.02 sec. (448086.91 ticks, tree = 11.84 MB, solutions = 7)
    975   565      397.0000    99      396.0000      400.0000  1120590    1.01%
    993   575      399.0000   131      396.0000      400.0000  1131176    1.01%
*  1004+  515                          397.0000      400.0000             0.76%
   1004   516      400.0000   121      397.0000      400.0000  1138344    0.76%
*  1005+  265                          399.0000      400.0000             0.25%
*  1005+    0                          400.0000      400.0000             0.00%

Clique cuts applied:  5
Zero-half cuts applied:  3

Root node processing (before b&c):
  Real time             =   28.78 sec. (37445.52 ticks)
Sequential b&c:
  Real time             =  418.81 sec. (430517.38 ticks)
                          ------------
Total (root+branch&cut) =  447.59 sec. (467962.90 ticks)
Primal:	400
Dual:	400
Status:	Optimal
Time:	447.65
Sequence:
	22
	9
	14
	5
	9
	12
	5
	7
	18
	6
	5
	16
	5
	21
	1
	20
	5
	12
	10
	12
	7
	23
	1
	20
	6
	14
	9
	7
	12
	9
	21
	0
	23
	7
	12
	9
	21
	0
	21
	5
	16
	7
	20
	2
	21
	5
	18
	5
	20
	3
	20
	5
	18
	6
	20
	3
	20
	7
	17
	5
	20
	3
	20
	8
	16
	5
	20
	3
	21
	5
	16
	6
	21
	1
	20
	9
	12
	7
	23
	0
	21
	9
	14
	5
	9
	14
	6
	23
	1
	20
	7
	16
	5
	20
	4
	20
	7
	16
	5
	21
	0
	23
	7
	12
	11
	13
	5
	23
	1
	20
	9
	15
	5
	14
	9
	5
	14
	6
	23
	1
	20
	11
	13
	5
	23
	1
	20
	11
	12
	5
	18
	5
	20
	3
	20
	7
	13
	9
	20
	1
	23
	7
	13
	9
	7
	12
	7
	16
	5
	14
	9
	21
	0
	20
	11
	12
	7
	16
	5
	13
	7
	23
	1
	20
	5
	19
	5
	20
	1
	23
	7
	13
	9
	20
	1
	21
	9
	12
	0
	21
	9
	12
	7
	16
	7
	12
	9
	21
	0
	21
	9
	12
	5
	18
	7
	13
	9
	20
	1
	21
	9
	13
	5
	18
	5
	12
	11
	20
	1
	23
	5
	12
	11
	21
	0
	23
	5
	12
	11
	20
	1
	20
	6
	18
	5
	5
	16
	8
	20
	3
	20
	5
	19
	5
	12
	7
	16
	6
	20
	3
	21
	5
	16
	6
	21
	1
	23
	5
	12
	11
	15
	5
	9
	12
	7
	18
	6
	12
	9
	14
	7
	16
	5
	12
	11
	21
	0
	23
	5
	12
	9
	22
	1
	23
	5
	12
	11
	13
	5
	23
	1
	21
	5
	12
	10
	12
	7
	16
	7
	5
	16
	6
	21
	1
	20
	5
	16
	7
	21
	2
	20
	5
	16
	7
	21
	2
	20
	5
	18
	7
	13
	9
	20
	1
	23
	5
	12
	9
	22
	1
	23
	5
	12
	9
	22
	1
	23
	5
	12
	11
	20
	1
	23
	5
	14
	9
	21
	0
	23
	7
	12
	11
	20
	0
	21
	9
	12
	7
	23
	1
	20
	10
	14
	5
	20
	3
	20
	8
	16
	5
	14
	9
	20
	1
	20
	11
	13
	5
	23
	1
	21
	5
	16
	5
	21
	2
	21
	5
	16
	7
	5
	18
	6
	12
	11
	20
	1
	23
	5
	14
	9
	12
	7
	23
	0
	20
	9
	12
	7
	24
